(set-logic UFDTLIRA)
(declare-fun M (Int) Int)
(declare-fun k () Int)
(assert (= (M 0) 1))
(assert (= (M 14) 1000))
(assert (= k 14))
(assert (or (= (M 1) (+ (M (- 1 1)) 1)) (= (M 1) (* (M (- 1 1)) 2))))
(assert (or (= (M 2) (+ (M (- 2 1)) 1)) (= (M 2) (* (M (- 2 1)) 2))))
(assert (or (= (M 3) (+ (M (- 3 1)) 1)) (= (M 3) (* (M (- 3 1)) 2))))
(assert (or (= (M 4) (+ (M (- 4 1)) 1)) (= (M 4) (* (M (- 4 1)) 2))))
(assert (or (= (M 5) (+ (M (- 5 1)) 1)) (= (M 5) (* (M (- 5 1)) 2))))
(assert (or (= (M 6) (+ (M (- 6 1)) 1)) (= (M 6) (* (M (- 6 1)) 2))))
(assert (or (= (M 7) (+ (M (- 7 1)) 1)) (= (M 7) (* (M (- 7 1)) 2))))
(assert (or (= (M 8) (+ (M (- 8 1)) 1)) (= (M 8) (* (M (- 8 1)) 2))))
(assert (or (= (M 9) (+ (M (- 9 1)) 1)) (= (M 9) (* (M (- 9 1)) 2))))
(assert (or (= (M 10) (+ (M (- 10 1)) 1)) (= (M 10) (* (M (- 10 1)) 2))))
(assert (or (= (M 11) (+ (M (- 11 1)) 1)) (= (M 11) (* (M (- 11 1)) 2))))
(assert (or (= (M 12) (+ (M (- 12 1)) 1)) (= (M 12) (* (M (- 12 1)) 2))))
(assert (or (= (M 13) (+ (M (- 13 1)) 1)) (= (M 13) (* (M (- 13 1)) 2))))
(assert (or (= (M 14) (+ (M (- 14 1)) 1)) (= (M 14) (* (M (- 14 1)) 2))))
(assert (or (= (M 15) (+ (M (- 15 1)) 1)) (= (M 15) (* (M (- 15 1)) 2))))
(assert (or (= (M 16) (+ (M (- 16 1)) 1)) (= (M 16) (* (M (- 16 1)) 2))))
(assert (or (= (M 17) (+ (M (- 17 1)) 1)) (= (M 17) (* (M (- 17 1)) 2))))
(assert (or (= (M 18) (+ (M (- 18 1)) 1)) (= (M 18) (* (M (- 18 1)) 2))))
(assert (or (= (M 19) (+ (M (- 19 1)) 1)) (= (M 19) (* (M (- 19 1)) 2))))
(assert (or (= (M 20) (+ (M (- 20 1)) 1)) (= (M 20) (* (M (- 20 1)) 2))))
(assert (or (= (M 21) (+ (M (- 21 1)) 1)) (= (M 21) (* (M (- 21 1)) 2))))
(assert (or (= (M 22) (+ (M (- 22 1)) 1)) (= (M 22) (* (M (- 22 1)) 2))))
(assert (or (= (M 23) (+ (M (- 23 1)) 1)) (= (M 23) (* (M (- 23 1)) 2))))
(assert (or (= (M 24) (+ (M (- 24 1)) 1)) (= (M 24) (* (M (- 24 1)) 2))))
(assert (or (= (M 25) (+ (M (- 25 1)) 1)) (= (M 25) (* (M (- 25 1)) 2))))
(assert (or (= (M 26) (+ (M (- 26 1)) 1)) (= (M 26) (* (M (- 26 1)) 2))))
(assert (or (= (M 27) (+ (M (- 27 1)) 1)) (= (M 27) (* (M (- 27 1)) 2))))
(assert (or (= (M 28) (+ (M (- 28 1)) 1)) (= (M 28) (* (M (- 28 1)) 2))))
(assert (or (= (M 29) (+ (M (- 29 1)) 1)) (= (M 29) (* (M (- 29 1)) 2))))
(assert (or (= (M 30) (+ (M (- 30 1)) 1)) (= (M 30) (* (M (- 30 1)) 2))))

(check-sat)